NAME: random-2-5450
TYPE: TSP
COMMENT: size=2 seed=5450
DIMENSION: 6
EDGE_WEIGHT_TYPE: EUC_2D
NODE_COORD_SECTION
+0 150 798
-0 150 798
+1 259 529
-1 168 847
+2 156 232
-2 770 240
PRECEDENCE_SECTION
+0 -0
+1 -1
+2 -2
EOF
